db/inputs/20519202502969528172140317363010517721.smt2
(set-logic QF_FP)
(declare-const x0 (_ FloatingPoint 11 53))
(declare-const x1 (_ FloatingPoint 11 53))
(declare-const x2 (_ FloatingPoint 11 53))
(declare-const x3 (_ FloatingPoint 11 53))
(declare-const x4 (_ FloatingPoint 11 53))
(declare-const x5 (_ FloatingPoint 11 53))
(declare-const x6 (_ FloatingPoint 11 53))
(declare-const x7 (_ FloatingPoint 11 53))
(declare-const x8 (_ FloatingPoint 11 53))
(declare-const x9 (_ FloatingPoint 11 53))
(declare-const x10 (_ FloatingPoint 11 53))
(declare-const x11 (_ FloatingPoint 11 53))
(declare-const x12 (_ FloatingPoint 11 53))
(declare-const x13 (_ FloatingPoint 11 53))
(declare-const x14 (_ FloatingPoint 11 53))
(declare-const x15 (_ FloatingPoint 11 53))
(declare-const x16 (_ FloatingPoint 11 53))
(declare-const x17 (_ FloatingPoint 11 53))
(declare-const x18 (_ FloatingPoint 11 53))
(declare-const x19 (_ FloatingPoint 11 53))
(declare-const x20 (_ FloatingPoint 11 53))
(declare-const x21 (_ FloatingPoint 11 53))
(declare-const x22 (_ FloatingPoint 11 53))
(declare-const x23 (_ FloatingPoint 11 53))
(declare-const x24 (_ FloatingPoint 11 53))
(declare-const x25 (_ FloatingPoint 11 53))
(declare-const x26 (_ FloatingPoint 11 53))
(assert (fp.geq (fp.mul RNE x2 x13) (fp.div RNE x24 x8)))
(assert (fp.lt (fp.sub RNE x6 x8) (fp.add RNE x19 x17)))
(assert (fp.leq (fp.sub RNE x13 x13) (fp.mul RNE x16 x10)))
(assert (fp.gt (fp.sub RNE x17 x6) (fp.div RNE x16 x14)))
(assert (fp.geq (fp.mul RNE x10 x21) (fp.div RNE x0 x13)))
(assert (fp.eq (fp.sub RNE x16 x14) (fp.mul RNE x26 x23)))
(assert (fp.lt (fp.div RNE x26 x3) (fp.sub RNE x15 x1)))
(assert (fp.leq (fp.neg x20) (fp.neg x19)))
(assert (fp.geq (fp.neg x25) (fp.sub RNE x9 x5)))
(assert (fp.leq (fp.add RNE x21 x1) (fp.add RNE x17 x25)))
(assert (fp.eq (fp.add RNE x19 x20) (fp.sub RNE x2 x10)))
(check-sat)
