db/data/20519202502969528172140317363010517721.z3.out
-------------------
2500.162064825
